c File: data_files/evolved_graphs/g3726.col
c
c Auto generated graph
c
p edge 100 1915
e 1 3
e 1 5
e 1 7
e 1 8
e 1 9
e 1 11
e 1 12
e 1 13
e 1 14
e 1 15
e 1 16
e 1 19
e 1 20
e 1 23
e 1 24
e 1 25
e 1 26
e 1 27
e 1 31
e 1 33
e 1 34
e 1 35
e 1 36
e 1 38
e 1 39
e 1 42
e 1 43
e 1 44
e 1 45
e 1 47
e 1 48
e 1 49
e 1 50
e 1 51
e 1 53
e 1 55
e 1 56
e 1 57
e 1 68
e 1 71
e 1 75
e 1 81
e 1 87
e 1 88
e 1 90
e 1 91
e 1 93
e 1 95
e 1 100
e 2 3
e 2 4
e 2 7
e 2 8
e 2 9
e 2 10
e 2 11
e 2 15
e 2 17
e 2 18
e 2 20
e 2 21
e 2 23
e 2 26
e 2 27
e 2 28
e 2 33
e 2 34
e 2 35
e 2 37
e 2 40
e 2 41
e 2 43
e 2 45
e 2 48
e 2 49
e 2 50
e 2 51
e 2 52
e 2 56
e 2 58
e 2 66
e 2 67
e 2 81
e 2 87
e 2 88
e 2 90
e 2 95
e 2 100
e 3 4
e 3 5
e 3 6
e 3 7
e 3 8
e 3 9
e 3 10
e 3 13
e 3 14
e 3 15
e 3 18
e 3 20
e 3 23
e 3 29
e 3 32
e 3 34
e 3 36
e 3 37
e 3 38
e 3 39
e 3 40
e 3 41
e 3 43
e 3 44
e 3 48
e 3 49
e 3 52
e 3 54
e 3 55
e 3 56
e 3 57
e 3 62
e 3 65
e 3 80
e 3 83
e 3 85
e 3 87
e 3 88
e 3 89
e 3 91
e 3 94
e 3 95
e 3 100
e 4 7
e 4 10
e 4 11
e 4 19
e 4 21
e 4 22
e 4 23
e 4 25
e 4 26
e 4 27
e 4 30
e 4 31
e 4 33
e 4 35
e 4 36
e 4 38
e 4 40
e 4 41
e 4 42
e 4 45
e 4 47
e 4 49
e 4 51
e 4 52
e 4 53
e 4 54
e 4 55
e 4 56
e 4 57
e 4 58
e 4 65
e 4 67
e 4 68
e 4 69
e 4 73
e 4 76
e 4 77
e 4 79
e 4 82
e 4 85
e 4 87
e 4 88
e 4 91
e 4 98
e 4 99
e 4 100
e 5 6
e 5 9
e 5 11
e 5 13
e 5 14
e 5 15
e 5 17
e 5 18
e 5 23
e 5 26
e 5 29
e 5 31
e 5 32
e 5 33
e 5 35
e 5 38
e 5 40
e 5 43
e 5 44
e 5 45
e 5 46
e 5 50
e 5 51
e 5 54
e 5 55
e 5 62
e 5 65
e 5 70
e 5 73
e 5 75
e 5 86
e 5 88
e 5 90
e 5 92
e 5 93
e 5 94
e 5 95
e 5 97
e 5 99
e 6 7
e 6 8
e 6 12
e 6 16
e 6 17
e 6 20
e 6 21
e 6 22
e 6 24
e 6 25
e 6 26
e 6 27
e 6 28
e 6 33
e 6 36
e 6 37
e 6 38
e 6 40
e 6 41
e 6 43
e 6 47
e 6 48
e 6 49
e 6 50
e 6 51
e 6 52
e 6 53
e 6 54
e 6 55
e 6 56
e 6 57
e 6 58
e 6 61
e 6 65
e 6 72
e 6 82
e 6 83
e 6 85
e 6 89
e 6 94
e 6 95
e 6 96
e 6 98
e 6 99
e 7 8
e 7 9
e 7 15
e 7 16
e 7 17
e 7 20
e 7 21
e 7 24
e 7 25
e 7 28
e 7 31
e 7 32
e 7 35
e 7 36
e 7 37
e 7 38
e 7 40
e 7 42
e 7 43
e 7 45
e 7 47
e 7 48
e 7 49
e 7 51
e 7 53
e 7 54
e 7 57
e 7 59
e 7 68
e 7 73
e 7 74
e 7 84
e 7 87
e 7 90
e 7 91
e 7 96
e 7 99
e 8 9
e 8 11
e 8 12
e 8 14
e 8 16
e 8 17
e 8 22
e 8 23
e 8 25
e 8 26
e 8 27
e 8 28
e 8 29
e 8 31
e 8 32
e 8 33
e 8 34
e 8 36
e 8 38
e 8 39
e 8 40
e 8 41
e 8 44
e 8 45
e 8 47
e 8 48
e 8 49
e 8 50
e 8 55
e 8 57
e 8 61
e 8 63
e 8 66
e 8 71
e 8 74
e 8 76
e 8 82
e 8 85
e 8 87
e 8 88
e 8 92
e 8 93
e 8 94
e 8 95
e 8 96
e 8 99
e 9 10
e 9 12
e 9 13
e 9 14
e 9 16
e 9 17
e 9 20
e 9 23
e 9 26
e 9 30
e 9 31
e 9 32
e 9 33
e 9 34
e 9 35
e 9 40
e 9 43
e 9 44
e 9 45
e 9 46
e 9 47
e 9 50
e 9 51
e 9 52
e 9 53
e 9 55
e 9 58
e 9 63
e 9 64
e 9 65
e 9 66
e 9 68
e 9 89
e 9 90
e 9 91
e 9 92
e 9 94
e 9 97
e 9 98
e 9 100
e 10 11
e 10 13
e 10 15
e 10 16
e 10 17
e 10 19
e 10 21
e 10 22
e 10 27
e 10 28
e 10 30
e 10 31
e 10 32
e 10 35
e 10 37
e 10 38
e 10 39
e 10 40
e 10 42
e 10 44
e 10 45
e 10 49
e 10 50
e 10 51
e 10 57
e 10 63
e 10 65
e 10 66
e 10 76
e 10 81
e 10 83
e 10 84
e 10 87
e 10 90
e 10 93
e 10 94
e 10 97
e 11 12
e 11 14
e 11 15
e 11 17
e 11 19
e 11 20
e 11 22
e 11 24
e 11 30
e 11 32
e 11 36
e 11 37
e 11 38
e 11 39
e 11 41
e 11 42
e 11 45
e 11 46
e 11 47
e 11 48
e 11 49
e 11 52
e 11 53
e 11 61
e 11 65
e 11 73
e 11 80
e 11 81
e 11 88
e 11 91
e 11 92
e 11 94
e 12 13
e 12 14
e 12 18
e 12 20
e 12 21
e 12 23
e 12 24
e 12 26
e 12 27
e 12 28
e 12 30
e 12 31
e 12 32
e 12 33
e 12 34
e 12 36
e 12 37
e 12 39
e 12 43
e 12 44
e 12 45
e 12 46
e 12 48
e 12 49
e 12 50
e 12 51
e 12 52
e 12 53
e 12 54
e 12 56
e 12 57
e 12 63
e 12 67
e 12 80
e 12 84
e 12 86
e 12 87
e 12 88
e 12 90
e 12 91
e 12 92
e 12 95
e 12 96
e 12 98
e 12 100
e 13 14
e 13 16
e 13 18
e 13 19
e 13 20
e 13 21
e 13 23
e 13 27
e 13 33
e 13 34
e 13 36
e 13 37
e 13 38
e 13 42
e 13 43
e 13 45
e 13 46
e 13 47
e 13 50
e 13 52
e 13 54
e 13 55
e 13 56
e 13 57
e 13 61
e 13 69
e 13 70
e 13 82
e 13 85
e 13 87
e 13 88
e 13 89
e 13 91
e 13 97
e 13 98
e 13 99
e 13 100
e 14 16
e 14 18
e 14 19
e 14 20
e 14 21
e 14 25
e 14 27
e 14 28
e 14 30
e 14 31
e 14 33
e 14 36
e 14 37
e 14 38
e 14 39
e 14 40
e 14 41
e 14 42
e 14 43
e 14 44
e 14 46
e 14 48
e 14 49
e 14 57
e 14 58
e 14 61
e 14 64
e 14 70
e 14 75
e 14 88
e 14 91
e 14 94
e 14 95
e 14 99
e 15 16
e 15 18
e 15 22
e 15 23
e 15 24
e 15 25
e 15 26
e 15 29
e 15 30
e 15 31
e 15 33
e 15 36
e 15 37
e 15 41
e 15 42
e 15 43
e 15 48
e 15 49
e 15 50
e 15 51
e 15 53
e 15 55
e 15 63
e 15 67
e 15 76
e 15 77
e 15 86
e 15 87
e 15 91
e 15 92
e 15 97
e 15 98
e 16 17
e 16 19
e 16 21
e 16 22
e 16 24
e 16 25
e 16 26
e 16 29
e 16 30
e 16 32
e 16 36
e 16 37
e 16 38
e 16 41
e 16 46
e 16 47
e 16 48
e 16 50
e 16 51
e 16 53
e 16 54
e 16 55
e 16 56
e 16 58
e 16 69
e 16 70
e 16 72
e 16 73
e 16 75
e 16 78
e 16 79
e 16 83
e 16 84
e 16 86
e 16 88
e 16 90
e 16 91
e 16 94
e 16 95
e 16 96
e 16 98
e 17 20
e 17 21
e 17 23
e 17 24
e 17 26
e 17 28
e 17 29
e 17 30
e 17 31
e 17 33
e 17 36
e 17 38
e 17 39
e 17 40
e 17 41
e 17 42
e 17 44
e 17 45
e 17 47
e 17 48
e 17 50
e 17 51
e 17 52
e 17 54
e 17 56
e 17 57
e 17 62
e 17 67
e 17 71
e 17 75
e 17 77
e 17 78
e 17 80
e 17 81
e 17 86
e 17 88
e 17 93
e 17 95
e 17 99
e 18 19
e 18 20
e 18 21
e 18 24
e 18 25
e 18 26
e 18 28
e 18 33
e 18 36
e 18 39
e 18 41
e 18 42
e 18 43
e 18 44
e 18 45
e 18 46
e 18 47
e 18 48
e 18 52
e 18 53
e 18 54
e 18 57
e 18 58
e 18 63
e 18 65
e 18 70
e 18 84
e 18 86
e 18 87
e 18 90
e 18 93
e 18 94
e 18 100
e 19 20
e 19 21
e 19 23
e 19 24
e 19 28
e 19 30
e 19 31
e 19 33
e 19 34
e 19 35
e 19 39
e 19 40
e 19 41
e 19 42
e 19 44
e 19 45
e 19 48
e 19 49
e 19 50
e 19 51
e 19 52
e 19 54
e 19 55
e 19 58
e 19 59
e 19 69
e 19 81
e 19 83
e 19 85
e 19 90
e 19 91
e 19 95
e 19 96
e 19 97
e 19 98
e 19 99
e 19 100
e 20 21
e 20 22
e 20 25
e 20 27
e 20 28
e 20 30
e 20 32
e 20 33
e 20 34
e 20 35
e 20 36
e 20 37
e 20 38
e 20 39
e 20 42
e 20 43
e 20 44
e 20 45
e 20 48
e 20 49
e 20 50
e 20 53
e 20 58
e 20 75
e 20 77
e 20 82
e 20 85
e 20 88
e 20 89
e 20 90
e 20 94
e 20 97
e 21 22
e 21 24
e 21 27
e 21 28
e 21 32
e 21 35
e 21 36
e 21 37
e 21 38
e 21 41
e 21 43
e 21 44
e 21 45
e 21 47
e 21 49
e 21 50
e 21 53
e 21 54
e 21 55
e 21 56
e 21 58
e 21 59
e 21 62
e 21 76
e 21 77
e 21 78
e 21 83
e 21 86
e 21 87
e 21 91
e 21 94
e 21 96
e 21 100
e 22 26
e 22 30
e 22 32
e 22 33
e 22 34
e 22 36
e 22 37
e 22 39
e 22 40
e 22 41
e 22 45
e 22 46
e 22 47
e 22 50
e 22 54
e 22 55
e 22 56
e 22 58
e 22 62
e 22 63
e 22 65
e 22 73
e 22 74
e 22 78
e 22 79
e 22 81
e 22 84
e 22 87
e 22 88
e 22 90
e 22 91
e 22 93
e 22 95
e 22 97
e 22 98
e 22 99
e 22 100
e 23 25
e 23 26
e 23 28
e 23 30
e 23 32
e 23 34
e 23 36
e 23 37
e 23 38
e 23 40
e 23 45
e 23 46
e 23 48
e 23 49
e 23 50
e 23 52
e 23 53
e 23 54
e 23 55
e 23 58
e 23 73
e 23 89
e 23 91
e 23 92
e 23 93
e 23 94
e 23 95
e 24 26
e 24 28
e 24 29
e 24 30
e 24 32
e 24 33
e 24 38
e 24 39
e 24 44
e 24 45
e 24 47
e 24 48
e 24 50
e 24 52
e 24 53
e 24 55
e 24 56
e 24 57
e 24 58
e 24 60
e 24 65
e 24 71
e 24 73
e 24 79
e 24 87
e 24 89
e 24 90
e 24 94
e 24 97
e 25 27
e 25 29
e 25 30
e 25 31
e 25 35
e 25 36
e 25 38
e 25 39
e 25 41
e 25 42
e 25 44
e 25 45
e 25 46
e 25 47
e 25 49
e 25 52
e 25 53
e 25 54
e 25 57
e 25 58
e 25 61
e 25 63
e 25 80
e 25 83
e 25 84
e 25 93
e 25 94
e 25 98
e 26 27
e 26 28
e 26 29
e 26 34
e 26 35
e 26 36
e 26 38
e 26 39
e 26 40
e 26 41
e 26 43
e 26 45
e 26 48
e 26 49
e 26 50
e 26 52
e 26 54
e 26 55
e 26 56
e 26 57
e 26 58
e 26 63
e 26 69
e 26 70
e 26 72
e 26 73
e 26 76
e 26 86
e 26 90
e 26 91
e 26 95
e 26 97
e 26 98
e 26 99
e 26 100
e 27 29
e 27 31
e 27 32
e 27 34
e 27 35
e 27 36
e 27 37
e 27 38
e 27 39
e 27 41
e 27 42
e 27 43
e 27 44
e 27 45
e 27 48
e 27 55
e 27 56
e 27 57
e 27 58
e 27 66
e 27 79
e 27 83
e 27 85
e 27 87
e 27 88
e 27 91
e 27 93
e 27 94
e 27 99
e 28 29
e 28 30
e 28 31
e 28 33
e 28 34
e 28 35
e 28 36
e 28 37
e 28 38
e 28 39
e 28 40
e 28 41
e 28 42
e 28 43
e 28 44
e 28 46
e 28 48
e 28 49
e 28 50
e 28 52
e 28 53
e 28 54
e 28 55
e 28 56
e 28 57
e 28 58
e 28 72
e 28 79
e 28 84
e 28 85
e 28 86
e 28 89
e 28 91
e 28 93
e 28 94
e 28 95
e 28 97
e 28 98
e 28 99
e 29 30
e 29 31
e 29 34
e 29 35
e 29 36
e 29 37
e 29 42
e 29 44
e 29 46
e 29 47
e 29 50
e 29 51
e 29 52
e 29 53
e 29 54
e 29 55
e 29 56
e 29 58
e 29 59
e 29 64
e 29 69
e 29 72
e 29 73
e 29 78
e 29 85
e 29 88
e 29 90
e 29 96
e 29 97
e 29 99
e 30 34
e 30 35
e 30 36
e 30 37
e 30 39
e 30 40
e 30 45
e 30 46
e 30 48
e 30 50
e 30 53
e 30 54
e 30 57
e 30 64
e 30 70
e 30 82
e 30 85
e 30 86
e 30 87
e 30 88
e 30 89
e 30 90
e 30 91
e 30 92
e 30 94
e 30 95
e 30 97
e 30 98
e 30 99
e 30 100
e 31 33
e 31 34
e 31 35
e 31 37
e 31 38
e 31 39
e 31 40
e 31 42
e 31 47
e 31 48
e 31 52
e 31 54
e 31 55
e 31 56
e 31 57
e 31 66
e 31 83
e 31 86
e 31 89
e 31 90
e 31 91
e 31 93
e 31 94
e 31 95
e 31 96
e 31 97
e 32 33
e 32 35
e 32 36
e 32 39
e 32 40
e 32 43
e 32 45
e 32 46
e 32 47
e 32 50
e 32 51
e 32 52
e 32 54
e 32 55
e 32 57
e 32 59
e 32 68
e 32 72
e 32 75
e 32 79
e 32 85
e 32 86
e 32 88
e 32 91
e 32 93
e 32 94
e 32 97
e 32 99
e 33 34
e 33 36
e 33 37
e 33 39
e 33 44
e 33 45
e 33 46
e 33 48
e 33 49
e 33 50
e 33 51
e 33 52
e 33 55
e 33 56
e 33 65
e 33 79
e 33 81
e 33 85
e 33 86
e 33 87
e 33 88
e 33 89
e 33 91
e 33 92
e 33 93
e 33 97
e 34 35
e 34 39
e 34 41
e 34 42
e 34 43
e 34 45
e 34 46
e 34 47
e 34 48
e 34 50
e 34 51
e 34 53
e 34 54
e 34 57
e 34 60
e 34 63
e 34 77
e 34 81
e 34 82
e 34 88
e 34 89
e 34 90
e 34 92
e 34 95
e 34 98
e 35 36
e 35 37
e 35 40
e 35 43
e 35 47
e 35 48
e 35 49
e 35 53
e 35 56
e 35 60
e 35 82
e 35 83
e 35 87
e 35 88
e 35 90
e 35 91
e 35 93
e 35 96
e 35 97
e 36 38
e 36 40
e 36 41
e 36 42
e 36 43
e 36 44
e 36 46
e 36 47
e 36 49
e 36 50
e 36 51
e 36 52
e 36 54
e 36 55
e 36 56
e 36 57
e 36 65
e 36 67
e 36 69
e 36 71
e 36 72
e 36 73
e 36 80
e 36 84
e 36 88
e 36 89
e 36 100
e 37 38
e 37 40
e 37 41
e 37 43
e 37 45
e 37 49
e 37 51
e 37 52
e 37 54
e 37 56
e 37 57
e 37 58
e 37 76
e 37 82
e 37 89
e 37 91
e 37 93
e 37 94
e 37 97
e 37 98
e 37 99
e 37 100
e 38 39
e 38 42
e 38 43
e 38 44
e 38 45
e 38 46
e 38 47
e 38 51
e 38 54
e 38 55
e 38 56
e 38 58
e 38 60
e 38 61
e 38 69
e 38 75
e 38 79
e 38 80
e 38 81
e 38 89
e 38 91
e 38 93
e 38 95
e 38 97
e 39 40
e 39 41
e 39 42
e 39 43
e 39 46
e 39 47
e 39 48
e 39 49
e 39 50
e 39 51
e 39 54
e 39 56
e 39 58
e 39 59
e 39 64
e 39 66
e 39 74
e 39 76
e 39 78
e 39 79
e 39 85
e 39 92
e 39 93
e 39 94
e 39 95
e 39 96
e 40 41
e 40 42
e 40 43
e 40 44
e 40 45
e 40 47
e 40 48
e 40 50
e 40 51
e 40 54
e 40 55
e 40 57
e 40 59
e 40 69
e 40 70
e 40 73
e 40 75
e 40 82
e 40 83
e 40 87
e 40 88
e 40 94
e 40 96
e 40 97
e 40 98
e 41 43
e 41 44
e 41 45
e 41 47
e 41 48
e 41 49
e 41 50
e 41 51
e 41 52
e 41 55
e 41 56
e 41 57
e 41 64
e 41 72
e 41 74
e 41 76
e 41 78
e 41 81
e 41 84
e 41 87
e 41 93
e 41 98
e 41 99
e 41 100
e 42 44
e 42 47
e 42 49
e 42 51
e 42 52
e 42 54
e 42 55
e 42 56
e 42 58
e 42 71
e 42 74
e 42 86
e 42 89
e 42 92
e 42 95
e 43 46
e 43 47
e 43 50
e 43 52
e 43 54
e 43 56
e 43 58
e 43 70
e 43 76
e 43 78
e 43 81
e 43 82
e 43 86
e 43 87
e 43 89
e 43 91
e 43 92
e 43 93
e 43 97
e 43 98
e 43 100
e 44 46
e 44 47
e 44 49
e 44 50
e 44 52
e 44 55
e 44 56
e 44 77
e 44 80
e 44 84
e 44 86
e 44 87
e 44 89
e 44 90
e 44 94
e 44 97
e 44 99
e 45 47
e 45 50
e 45 52
e 45 53
e 45 55
e 45 57
e 45 58
e 45 64
e 45 72
e 45 76
e 45 84
e 45 87
e 45 88
e 45 89
e 45 90
e 45 91
e 45 92
e 45 94
e 45 99
e 46 47
e 46 48
e 46 49
e 46 50
e 46 51
e 46 52
e 46 53
e 46 54
e 46 55
e 46 56
e 46 57
e 46 58
e 46 85
e 46 86
e 46 88
e 46 89
e 46 91
e 46 92
e 46 97
e 46 98
e 46 99
e 46 100
e 47 50
e 47 51
e 47 53
e 47 57
e 47 58
e 47 66
e 47 67
e 47 69
e 47 73
e 47 75
e 47 91
e 47 92
e 47 93
e 47 94
e 47 98
e 47 99
e 48 49
e 48 50
e 48 51
e 48 53
e 48 55
e 48 56
e 48 58
e 48 66
e 48 77
e 48 79
e 48 87
e 48 90
e 48 91
e 48 93
e 48 96
e 48 98
e 48 100
e 49 54
e 49 55
e 49 56
e 49 57
e 49 64
e 49 83
e 49 92
e 49 96
e 49 97
e 50 53
e 50 54
e 50 56
e 50 57
e 50 58
e 50 62
e 50 72
e 50 74
e 50 80
e 50 86
e 50 87
e 50 89
e 50 92
e 50 96
e 50 97
e 50 98
e 50 99
e 50 100
e 51 52
e 51 53
e 51 54
e 51 56
e 51 58
e 51 59
e 51 60
e 51 62
e 51 80
e 51 86
e 51 90
e 51 94
e 51 96
e 51 97
e 51 99
e 51 100
e 52 53
e 52 54
e 52 55
e 52 56
e 52 64
e 52 74
e 52 86
e 52 89
e 52 91
e 52 94
e 52 95
e 52 97
e 53 55
e 53 56
e 53 58
e 53 60
e 53 66
e 53 72
e 53 75
e 53 81
e 53 84
e 53 86
e 53 87
e 53 91
e 53 96
e 53 98
e 53 99
e 54 55
e 54 57
e 54 58
e 54 63
e 54 65
e 54 86
e 54 87
e 54 90
e 54 91
e 54 93
e 54 95
e 54 100
e 55 56
e 55 57
e 55 58
e 55 64
e 55 66
e 55 71
e 55 72
e 55 79
e 55 89
e 55 90
e 55 91
e 55 93
e 55 98
e 55 99
e 55 100
e 56 57
e 56 58
e 56 62
e 56 63
e 56 88
e 56 89
e 56 91
e 56 92
e 56 97
e 56 100
e 57 58
e 57 64
e 57 65
e 57 66
e 57 71
e 57 90
e 57 91
e 57 94
e 57 95
e 57 99
e 57 100
e 58 62
e 58 64
e 58 71
e 58 74
e 58 77
e 58 84
e 58 85
e 58 89
e 58 90
e 58 92
e 58 93
e 58 94
e 58 98
e 58 100
e 59 60
e 59 61
e 59 62
e 59 63
e 59 64
e 59 67
e 59 69
e 59 87
e 59 89
e 60 61
e 60 63
e 60 64
e 60 65
e 60 67
e 60 68
e 60 69
e 60 71
e 60 73
e 60 88
e 61 62
e 61 63
e 61 65
e 61 67
e 61 73
e 61 74
e 61 95
e 62 63
e 62 66
e 62 67
e 62 68
e 62 70
e 62 73
e 62 74
e 63 66
e 63 70
e 63 71
e 63 74
e 63 85
e 64 66
e 64 67
e 64 68
e 64 70
e 65 66
e 65 67
e 65 68
e 65 69
e 65 70
e 65 71
e 65 74
e 65 97
e 66 68
e 66 71
e 66 73
e 66 93
e 67 68
e 67 69
e 67 70
e 67 71
e 67 72
e 67 74
e 68 70
e 68 71
e 68 72
e 68 73
e 68 74
e 68 75
e 69 70
e 69 71
e 69 73
e 69 75
e 69 94
e 70 71
e 70 72
e 70 73
e 70 74
e 70 96
e 70 99
e 71 72
e 71 99
e 72 73
e 72 86
e 73 74
e 73 83
e 74 88
e 74 91
e 74 98
e 75 77
e 75 79
e 75 81
e 75 82
e 75 84
e 75 87
e 75 89
e 75 92
e 75 93
e 75 94
e 75 95
e 75 98
e 76 78
e 76 79
e 76 80
e 76 81
e 76 83
e 76 84
e 76 85
e 76 86
e 76 88
e 76 89
e 76 90
e 76 94
e 76 95
e 76 97
e 76 98
e 77 78
e 77 79
e 77 82
e 77 84
e 77 85
e 77 86
e 77 87
e 77 89
e 77 90
e 77 91
e 77 93
e 77 94
e 77 95
e 77 97
e 77 100
e 78 79
e 78 82
e 78 84
e 78 86
e 78 87
e 78 88
e 78 90
e 78 91
e 78 92
e 78 93
e 78 95
e 78 96
e 78 98
e 78 100
e 79 81
e 79 82
e 79 83
e 79 84
e 79 85
e 79 87
e 79 89
e 79 90
e 79 91
e 79 93
e 79 95
e 79 97
e 79 98
e 79 99
e 79 100
e 80 82
e 80 83
e 80 85
e 80 86
e 80 88
e 80 89
e 80 90
e 80 91
e 80 92
e 80 93
e 80 94
e 80 97
e 80 100
e 81 83
e 81 84
e 81 85
e 81 88
e 81 89
e 81 90
e 81 91
e 81 93
e 81 94
e 81 95
e 81 97
e 81 98
e 81 99
e 81 100
e 82 83
e 82 87
e 82 88
e 82 91
e 82 92
e 82 95
e 82 96
e 82 97
e 82 99
e 82 100
e 83 84
e 83 85
e 83 86
e 83 88
e 83 90
e 83 91
e 83 93
e 83 94
e 83 95
e 83 98
e 83 99
e 83 100
e 84 85
e 84 88
e 84 89
e 84 90
e 84 94
e 84 95
e 84 98
e 84 99
e 84 100
e 85 86
e 85 88
e 85 89
e 85 90
e 85 91
e 85 92
e 85 94
e 85 95
e 85 96
e 85 97
e 86 87
e 86 88
e 86 89
e 86 90
e 86 93
e 86 94
e 86 96
e 86 98
e 86 100
e 87 89
e 87 90
e 87 92
e 87 93
e 87 97
e 87 100
e 88 89
e 88 91
e 88 92
e 88 94
e 88 95
e 88 96
e 88 98
e 88 100
e 89 90
e 89 91
e 89 92
e 89 95
e 89 97
e 89 98
e 89 99
e 89 100
e 90 91
e 90 93
e 90 94
e 90 98
e 90 99
e 91 93
e 91 95
e 91 96
e 91 100
e 92 93
e 92 94
e 92 96
e 92 98
e 93 94
e 93 95
e 93 96
e 93 97
e 94 96
e 94 97
e 94 99
e 94 100
e 95 96
e 95 99
e 95 100
e 96 97
e 96 98
e 96 99
e 97 99
e 99 100
